7252845456864707080507,6,1,2,011,7,1,2,011,1,1,2,011,1,1,2,01,7,1,2,012,11,1,2,06,5,1,2,01,14,1,2,06,9,1,2,02,1,1,2,01,5,1,2,02,3,1,2,015,7,1,2,010,10,1,2,02,14,1,2,07,9,1,2,02,13,1,2,01,8,1,2,08,4,1,2,014,1,1,2,011,9,1,2,08,11,1,2,011,12,1,2,06,13,1,2,08,1,1,2,015,3,1,2,09,3,1,2,011,14,1,2,08,1,1,2,014,1,1,2,07,11,1,2,014,6,1,2,08,14,1,2,011,15,1,2,02,5,1,2,06,2,1,2,07,2,1,2,015,8,1,2,08,15,1,2,06,11,1,2,07,10,1,2,06,12,1,2,012,7,1,2,01,12,1,2,06,15,1,2,012,3,1,2,014,2,1,2,07,13,1,2,015,14,1,2,011,15,1,2,0